nohup: ignoring input
original problem has 8904 variables (8904 bin, 0 int, 0 impl, 0 cont) and 1069 constraints
solution value 1 violates bounds of <t_t_x81>[-0,0] by 1
Traceback (most recent call last):
  File "/home/liudefen/projects/ML4LocalBranch_extend/primal_heur_localbranch.py", line 335, in heurexec
    assert self.model.checkSol(incumbent_solution), 'initial solution of LB is not feasible'
AssertionError: initial solution of LB is not feasible
Exception ignored in: 'pyscipopt.scip.PyHeurExec'
Traceback (most recent call last):
  File "/home/liudefen/projects/ML4LocalBranch_extend/primal_heur_localbranch.py", line 335, in heurexec
    assert self.model.checkSol(incumbent_solution), 'initial solution of LB is not feasible'
AssertionError: initial solution of LB is not feasible
./result/saved_models/regression/trained_params_mean_setcover-independentset-combinatorialauction_asymmetric_firstsol_k_prime_epoch163.pth
./result/saved_models/rl/reinforce/setcovering/checkpoint_trained_reward3_simplepolicy_rl4lb_reinforce_trainset_setcovering-small_lr0.01_epochs7.pth
miplib_39binary-small
rootsol
./result/generated_instances/miplib_39binary/-small/rootsol/scip/heuristic_mode/lb-from-rootsol-t_total1200s-t_node2s-small_lb_k0_regression_beforenode_freq10/seed0/
seed: 0
cpu
instance:  3
create a new SCIP model
The initial incumbent of miplib_39binary-3_transformed_air04 is successfully added to MIP model
miplib_39binary-3_transformed_air04
N of variables: 8904
N of binary vars: 8904
N of constraints: 1069
Initial obj of MIP: 56212.0
* Model status: unknown
* Model status: nodelimit
* Solve stage: 9
* LP status: 1
* number of sol :  1
GNN prediction:  0.33976656198501587
GNN k_0:  25.0
LB heuristic is starting..
LB heuristic starts at 0.106019 s
No. of LB call:  1
LB initial objective: 56212.0
The init sol of original MIP is feasible
LB round: 1 Solving time: 2.0088 Best Obj: 56212.0000 n_sols_subMIP: 1 K: 25 t_node: 2.0 self.div: 0 LB Status: timelimit
LB round: 2 Solving time: 4.0169 Best Obj: 56212.0000 n_sols_subMIP: 1 K: 13 t_node: 2.0 self.div: 0 LB Status: timelimit
K_final: 13 div_final: 1
LB heuristic finishes at 4.623323 s
LB final objective: 56212.0
LB heurisitc fails, can not find an improving solution
LB heuristic is starting..
LB heuristic starts at 83.618968 s
Traceback (most recent call last):
  File "evaluation_scip_lb_regression.py", line 89, in <module>
    scip_as_baseline.execute_heuristic_baseline(
  File "/home/liudefen/projects/ML4LocalBranch_extend/execute_heuristics.py", line 372, in execute_heuristic_baseline
    self.setup_heuristic_per_instance(MIP_model=MIP_model,
  File "/home/liudefen/projects/ML4LocalBranch_extend/execute_heuristics.py", line 291, in setup_heuristic_per_instance
    data = self.execute_heuristic_per_instance(MIP_model, incumbent, node_time_limit,
  File "/home/liudefen/projects/ML4LocalBranch_extend/execute_heuristics.py", line 3224, in execute_heuristic_per_instance
    MIP_model_copy2.optimize()
  File "src/pyscipopt/scip.pyx", line 3158, in pyscipopt.scip.Model.optimize
  File "src/pyscipopt/scip.pyx", line 231, in pyscipopt.scip.PY_SCIP_CALL
Exception: SCIP: unspecified error!
